3
5
0 199 701 871 273 
199 0 504 684 257 
701 504 0 227 599 
871 684 227 0 709 
273 257 599 709 0 
0 1068 749 410 694 
1068 0 688 770 410 
749 688 0 755 359 
410 770 755 0 508 
694 410 359 508 0 
0 543 454 466 875 
543 0 324 266 662 
454 324 0 59 442 
466 266 59 0 463 
875 662 442 463 0 
